p edge 250 3084
e 1 34
e 1 44
e 1 72
e 1 82
e 1 109
e 1 111
e 1 124
e 1 129
e 1 138
e 1 143
e 1 147
e 1 150
e 1 156
e 1 167
e 1 170
e 1 204
e 1 222
e 1 230
e 1 235
e 1 243
e 1 247
e 2 14
e 2 25
e 2 37
e 2 46
e 2 60
e 2 71
e 2 74
e 2 83
e 2 85
e 2 87
e 2 91
e 2 92
e 2 113
e 2 138
e 2 165
e 2 174
e 2 177
e 2 190
e 2 196
e 2 200
e 2 213
e 2 214
e 2 219
e 2 225
e 2 231
e 2 236
e 3 5
e 3 18
e 3 37
e 3 40
e 3 54
e 3 64
e 3 65
e 3 69
e 3 75
e 3 77
e 3 83
e 3 101
e 3 111
e 3 113
e 3 137
e 3 140
e 3 150
e 3 165
e 3 190
e 3 192
e 3 216
e 3 218
e 3 221
e 3 223
e 3 232
e 4 13
e 4 21
e 4 25
e 4 50
e 4 58
e 4 70
e 4 80
e 4 84
e 4 87
e 4 98
e 4 100
e 4 123
e 4 141
e 4 145
e 4 153
e 4 165
e 4 178
e 4 199
e 4 206
e 4 209
e 4 217
e 4 221
e 4 222
e 4 250
e 5 6
e 5 8
e 5 11
e 5 22
e 5 33
e 5 55
e 5 60
e 5 71
e 5 75
e 5 76
e 5 81
e 5 86
e 5 90
e 5 118
e 5 122
e 5 126
e 5 128
e 5 129
e 5 144
e 5 160
e 5 161
e 5 167
e 5 177
e 5 180
e 5 189
e 5 197
e 5 200
e 5 204
e 5 214
e 5 215
e 5 218
e 5 222
e 5 225
e 5 227
e 5 235
e 5 239
e 6 14
e 6 22
e 6 23
e 6 27
e 6 35
e 6 52
e 6 67
e 6 80
e 6 106
e 6 108
e 6 112
e 6 149
e 6 154
e 6 165
e 6 183
e 6 209
e 6 210
e 6 230
e 6 231
e 7 9
e 7 13
e 7 27
e 7 29
e 7 36
e 7 37
e 7 56
e 7 58
e 7 65
e 7 78
e 7 82
e 7 87
e 7 89
e 7 95
e 7 107
e 7 109
e 7 119
e 7 124
e 7 129
e 7 133
e 7 135
e 7 138
e 7 140
e 7 142
e 7 149
e 7 153
e 7 166
e 7 177
e 7 204
e 7 232
e 7 241
e 7 243
e 7 249
e 8 13
e 8 17
e 8 30
e 8 41
e 8 50
e 8 57
e 8 72
e 8 73
e 8 79
e 8 83
e 8 85
e 8 86
e 8 87
e 8 92
e 8 105
e 8 119
e 8 133
e 8 139
e 8 142
e 8 149
e 8 158
e 8 193
e 8 195
e 8 197
e 8 218
e 8 234
e 8 242
e 8 244
e 9 18
e 9 49
e 9 58
e 9 61
e 9 72
e 9 86
e 9 97
e 9 102
e 9 109
e 9 110
e 9 124
e 9 128
e 9 137
e 9 148
e 9 149
e 9 152
e 9 163
e 9 173
e 9 186
e 9 189
e 9 198
e 9 201
e 9 207
e 9 209
e 9 215
e 9 247
e 9 250
e 10 40
e 10 57
e 10 61
e 10 62
e 10 65
e 10 67
e 10 75
e 10 76
e 10 110
e 10 124
e 10 131
e 10 137
e 10 154
e 10 160
e 10 161
e 10 162
e 10 166
e 10 174
e 10 178
e 10 190
e 10 191
e 10 202
e 10 219
e 10 223
e 10 245
e 11 18
e 11 42
e 11 60
e 11 61
e 11 62
e 11 70
e 11 79
e 11 82
e 11 99
e 11 110
e 11 125
e 11 128
e 11 153
e 11 169
e 11 180
e 11 186
e 11 189
e 11 190
e 11 198
e 11 207
e 11 208
e 11 211
e 11 212
e 11 222
e 11 234
e 11 245
e 12 20
e 12 32
e 12 45
e 12 56
e 12 62
e 12 89
e 12 90
e 12 98
e 12 101
e 12 121
e 12 123
e 12 124
e 12 139
e 12 145
e 12 146
e 12 161
e 12 162
e 12 169
e 12 173
e 12 178
e 12 184
e 12 192
e 12 216
e 12 219
e 12 226
e 12 236
e 13 30
e 13 40
e 13 54
e 13 57
e 13 65
e 13 69
e 13 81
e 13 108
e 13 123
e 13 125
e 13 140
e 13 163
e 13 173
e 13 177
e 13 180
e 13 182
e 13 227
e 13 240
e 13 241
e 14 17
e 14 19
e 14 31
e 14 39
e 14 41
e 14 49
e 14 63
e 14 66
e 14 111
e 14 116
e 14 120
e 14 130
e 14 135
e 14 138
e 14 144
e 14 164
e 14 170
e 14 182
e 14 211
e 14 214
e 14 225
e 14 239
e 15 24
e 15 33
e 15 46
e 15 56
e 15 63
e 15 65
e 15 83
e 15 88
e 15 110
e 15 121
e 15 131
e 15 136
e 15 153
e 15 164
e 15 198
e 15 211
e 15 237
e 15 250
e 16 25
e 16 34
e 16 76
e 16 101
e 16 103
e 16 128
e 16 130
e 16 145
e 16 146
e 16 147
e 16 154
e 16 175
e 16 192
e 16 197
e 16 209
e 16 223
e 16 238
e 17 26
e 17 27
e 17 46
e 17 55
e 17 57
e 17 59
e 17 74
e 17 75
e 17 78
e 17 80
e 17 82
e 17 109
e 17 113
e 17 115
e 17 161
e 17 188
e 17 206
e 17 209
e 17 211
e 17 213
e 17 220
e 17 223
e 17 231
e 18 28
e 18 35
e 18 52
e 18 54
e 18 59
e 18 62
e 18 70
e 18 73
e 18 83
e 18 96
e 18 97
e 18 107
e 18 128
e 18 134
e 18 153
e 18 154
e 18 167
e 18 187
e 18 199
e 18 203
e 18 204
e 18 209
e 18 214
e 18 221
e 18 224
e 18 231
e 18 235
e 18 245
e 19 39
e 19 53
e 19 66
e 19 71
e 19 76
e 19 84
e 19 95
e 19 97
e 19 116
e 19 126
e 19 128
e 19 134
e 19 141
e 19 152
e 19 153
e 19 155
e 19 158
e 19 160
e 19 182
e 19 183
e 19 187
e 19 208
e 19 209
e 19 212
e 19 239
e 19 247
e 20 31
e 20 58
e 20 66
e 20 74
e 20 76
e 20 81
e 20 88
e 20 138
e 20 145
e 20 173
e 20 193
e 20 201
e 20 210
e 20 226
e 20 234
e 20 245
e 21 36
e 21 39
e 21 42
e 21 61
e 21 77
e 21 87
e 21 88
e 21 91
e 21 123
e 21 125
e 21 151
e 21 154
e 21 155
e 21 156
e 21 173
e 21 177
e 21 192
e 21 202
e 21 204
e 21 207
e 21 218
e 21 235
e 22 39
e 22 65
e 22 95
e 22 102
e 22 104
e 22 106
e 22 108
e 22 115
e 22 156
e 22 164
e 22 206
e 22 210
e 22 223
e 22 233
e 23 26
e 23 29
e 23 38
e 23 50
e 23 53
e 23 54
e 23 59
e 23 76
e 23 78
e 23 83
e 23 97
e 23 120
e 23 126
e 23 131
e 23 149
e 23 151
e 23 154
e 23 171
e 23 188
e 23 190
e 23 196
e 23 199
e 23 201
e 23 216
e 23 217
e 23 230
e 23 237
e 23 238
e 23 240
e 23 250
e 24 41
e 24 76
e 24 78
e 24 108
e 24 111
e 24 117
e 24 130
e 24 137
e 24 141
e 24 145
e 24 177
e 24 183
e 24 195
e 24 199
e 24 217
e 24 246
e 24 250
e 25 27
e 25 48
e 25 51
e 25 60
e 25 72
e 25 75
e 25 89
e 25 108
e 25 124
e 25 125
e 25 130
e 25 188
e 25 198
e 25 211
e 25 212
e 25 214
e 25 222
e 25 224
e 25 227
e 25 242
e 25 244
e 25 246
e 26 35
e 26 39
e 26 45
e 26 50
e 26 79
e 26 104
e 26 106
e 26 119
e 26 123
e 26 163
e 26 171
e 26 172
e 26 173
e 26 174
e 26 230
e 26 233
e 26 237
e 27 34
e 27 52
e 27 69
e 27 81
e 27 83
e 27 91
e 27 100
e 27 112
e 27 120
e 27 135
e 27 141
e 27 156
e 27 161
e 27 165
e 27 166
e 27 171
e 27 176
e 27 216
e 27 219
e 27 220
e 27 227
e 27 230
e 27 233
e 27 235
e 28 47
e 28 56
e 28 61
e 28 78
e 28 85
e 28 92
e 28 127
e 28 132
e 28 134
e 28 140
e 28 144
e 28 158
e 28 179
e 28 182
e 28 209
e 28 215
e 28 225
e 28 240
e 28 242
e 28 244
e 28 245
e 28 246
e 29 39
e 29 49
e 29 62
e 29 75
e 29 91
e 29 101
e 29 102
e 29 106
e 29 121
e 29 130
e 29 134
e 29 135
e 29 137
e 29 143
e 29 146
e 29 151
e 29 159
e 29 165
e 29 171
e 29 177
e 29 182
e 29 194
e 29 203
e 29 213
e 30 34
e 30 43
e 30 50
e 30 55
e 30 68
e 30 81
e 30 82
e 30 97
e 30 124
e 30 138
e 30 153
e 30 179
e 30 183
e 30 186
e 30 196
e 30 223
e 30 232
e 30 235
e 30 247
e 30 249
e 30 250
e 31 37
e 31 67
e 31 68
e 31 82
e 31 88
e 31 107
e 31 114
e 31 117
e 31 131
e 31 134
e 31 157
e 31 171
e 31 216
e 31 219
e 31 223
e 31 226
e 31 228
e 32 37
e 32 60
e 32 80
e 32 88
e 32 90
e 32 92
e 32 99
e 32 122
e 32 123
e 32 129
e 32 169
e 32 173
e 32 175
e 32 180
e 32 184
e 32 189
e 32 211
e 32 226
e 32 237
e 32 239
e 33 49
e 33 56
e 33 76
e 33 88
e 33 100
e 33 125
e 33 128
e 33 138
e 33 143
e 33 144
e 33 147
e 33 153
e 33 158
e 33 163
e 33 164
e 33 167
e 33 173
e 33 174
e 33 191
e 33 212
e 33 250
e 34 58
e 34 82
e 34 83
e 34 119
e 34 121
e 34 125
e 34 137
e 34 138
e 34 141
e 34 155
e 34 162
e 34 189
e 34 191
e 34 213
e 34 214
e 34 224
e 34 226
e 34 228
e 34 231
e 34 237
e 35 47
e 35 50
e 35 55
e 35 56
e 35 63
e 35 68
e 35 73
e 35 89
e 35 92
e 35 98
e 35 101
e 35 103
e 35 105
e 35 110
e 35 114
e 35 138
e 35 139
e 35 140
e 35 141
e 35 165
e 35 175
e 35 182
e 35 184
e 35 187
e 35 199
e 35 202
e 35 208
e 35 245
e 36 67
e 36 70
e 36 87
e 36 104
e 36 117
e 36 129
e 36 151
e 36 156
e 36 183
e 36 207
e 36 244
e 36 245
e 36 249
e 37 46
e 37 52
e 37 61
e 37 79
e 37 84
e 37 106
e 37 115
e 37 116
e 37 124
e 37 136
e 37 143
e 37 148
e 37 149
e 37 152
e 37 154
e 37 157
e 37 162
e 37 163
e 37 181
e 37 190
e 37 195
e 37 196
e 37 197
e 37 199
e 37 215
e 37 219
e 37 220
e 37 225
e 37 235
e 37 246
e 37 249
e 38 44
e 38 46
e 38 52
e 38 89
e 38 99
e 38 102
e 38 104
e 38 113
e 38 138
e 38 144
e 38 171
e 38 183
e 38 189
e 38 194
e 38 195
e 38 204
e 38 207
e 38 213
e 38 231
e 38 237
e 39 41
e 39 48
e 39 51
e 39 59
e 39 69
e 39 85
e 39 96
e 39 109
e 39 115
e 39 130
e 39 135
e 39 137
e 39 153
e 39 159
e 39 160
e 39 164
e 39 165
e 39 172
e 39 181
e 39 185
e 39 212
e 39 213
e 39 215
e 39 216
e 39 226
e 39 230
e 39 241
e 39 243
e 40 48
e 40 49
e 40 50
e 40 59
e 40 67
e 40 74
e 40 94
e 40 98
e 40 99
e 40 110
e 40 114
e 40 115
e 40 124
e 40 147
e 40 155
e 40 157
e 40 163
e 40 166
e 40 177
e 40 178
e 40 182
e 40 191
e 40 216
e 40 226
e 40 235
e 40 241
e 41 42
e 41 44
e 41 51
e 41 56
e 41 59
e 41 62
e 41 63
e 41 70
e 41 82
e 41 83
e 41 86
e 41 93
e 41 95
e 41 103
e 41 104
e 41 106
e 41 111
e 41 140
e 41 143
e 41 193
e 41 197
e 41 199
e 41 237
e 42 72
e 42 87
e 42 90
e 42 94
e 42 97
e 42 122
e 42 134
e 42 138
e 42 144
e 42 153
e 42 158
e 42 163
e 42 165
e 42 185
e 42 187
e 42 197
e 42 212
e 42 227
e 42 237
e 42 238
e 42 243
e 43 57
e 43 79
e 43 83
e 43 95
e 43 98
e 43 101
e 43 110
e 43 124
e 43 131
e 43 136
e 43 139
e 43 168
e 43 183
e 43 194
e 43 198
e 43 202
e 43 205
e 43 244
e 44 47
e 44 55
e 44 56
e 44 62
e 44 66
e 44 73
e 44 79
e 44 87
e 44 101
e 44 122
e 44 180
e 44 184
e 44 186
e 44 187
e 44 198
e 44 208
e 45 58
e 45 60
e 45 73
e 45 85
e 45 92
e 45 100
e 45 117
e 45 124
e 45 159
e 45 166
e 45 195
e 45 198
e 45 209
e 45 229
e 45 234
e 45 242
e 46 49
e 46 51
e 46 57
e 46 59
e 46 61
e 46 65
e 46 71
e 46 90
e 46 138
e 46 154
e 46 182
e 46 216
e 46 221
e 46 243
e 47 58
e 47 60
e 47 67
e 47 68
e 47 74
e 47 91
e 47 94
e 47 110
e 47 153
e 47 173
e 47 175
e 47 182
e 47 202
e 47 210
e 47 229
e 47 240
e 48 54
e 48 64
e 48 68
e 48 71
e 48 73
e 48 78
e 48 80
e 48 85
e 48 89
e 48 101
e 48 102
e 48 104
e 48 107
e 48 117
e 48 134
e 48 148
e 48 149
e 48 153
e 48 159
e 48 163
e 48 164
e 48 188
e 48 201
e 48 206
e 48 218
e 48 243
e 48 246
e 49 57
e 49 63
e 49 72
e 49 85
e 49 107
e 49 119
e 49 122
e 49 129
e 49 132
e 49 142
e 49 143
e 49 150
e 49 151
e 49 153
e 49 157
e 49 159
e 49 178
e 49 180
e 49 195
e 49 196
e 49 209
e 49 212
e 49 234
e 49 240
e 49 247
e 50 84
e 50 87
e 50 108
e 50 125
e 50 134
e 50 142
e 50 145
e 50 181
e 50 183
e 50 189
e 50 190
e 50 208
e 50 217
e 50 227
e 50 231
e 50 232
e 50 245
e 50 249
e 51 75
e 51 78
e 51 81
e 51 85
e 51 90
e 51 92
e 51 96
e 51 101
e 51 113
e 51 118
e 51 121
e 51 142
e 51 143
e 51 149
e 51 175
e 51 203
e 51 204
e 51 220
e 51 223
e 51 237
e 52 57
e 52 60
e 52 73
e 52 80
e 52 83
e 52 92
e 52 99
e 52 104
e 52 110
e 52 138
e 52 139
e 52 141
e 52 144
e 52 146
e 52 177
e 52 191
e 52 220
e 52 222
e 52 223
e 52 230
e 53 57
e 53 58
e 53 69
e 53 95
e 53 106
e 53 107
e 53 122
e 53 128
e 53 132
e 53 134
e 53 147
e 53 162
e 53 178
e 53 195
e 53 221
e 53 240
e 53 246
e 54 79
e 54 103
e 54 105
e 54 108
e 54 109
e 54 111
e 54 126
e 54 141
e 54 152
e 54 164
e 54 165
e 54 183
e 54 186
e 54 189
e 54 200
e 54 204
e 54 210
e 54 213
e 54 237
e 54 250
e 55 63
e 55 69
e 55 75
e 55 97
e 55 99
e 55 111
e 55 120
e 55 122
e 55 123
e 55 124
e 55 140
e 55 142
e 55 154
e 55 163
e 55 166
e 55 172
e 55 181
e 55 185
e 55 189
e 55 193
e 55 201
e 55 221
e 55 232
e 55 234
e 55 243
e 55 246
e 56 64
e 56 68
e 56 79
e 56 90
e 56 94
e 56 103
e 56 109
e 56 117
e 56 119
e 56 130
e 56 134
e 56 172
e 56 174
e 56 176
e 56 177
e 56 181
e 56 184
e 56 187
e 56 194
e 56 195
e 56 196
e 56 238
e 57 60
e 57 106
e 57 129
e 57 134
e 57 142
e 57 143
e 57 145
e 57 156
e 57 166
e 57 172
e 57 176
e 57 190
e 57 195
e 57 218
e 57 219
e 57 241
e 57 246
e 58 74
e 58 93
e 58 97
e 58 98
e 58 109
e 58 118
e 58 129
e 58 178
e 58 192
e 58 193
e 58 211
e 58 219
e 58 247
e 59 62
e 59 64
e 59 69
e 59 74
e 59 78
e 59 82
e 59 87
e 59 100
e 59 122
e 59 125
e 59 136
e 59 138
e 59 163
e 59 166
e 59 181
e 59 186
e 59 211
e 59 220
e 59 221
e 59 222
e 59 236
e 59 240
e 60 63
e 60 64
e 60 70
e 60 93
e 60 108
e 60 123
e 60 136
e 60 161
e 60 168
e 60 189
e 60 210
e 60 215
e 60 216
e 60 241
e 61 67
e 61 82
e 61 85
e 61 89
e 61 94
e 61 108
e 61 116
e 61 134
e 61 147
e 61 157
e 61 160
e 61 165
e 61 181
e 61 182
e 61 193
e 61 199
e 61 214
e 61 227
e 61 234
e 61 238
e 61 239
e 61 244
e 61 247
e 61 248
e 62 64
e 62 72
e 62 103
e 62 121
e 62 145
e 62 172
e 62 176
e 62 192
e 62 200
e 62 204
e 62 231
e 62 239
e 63 64
e 63 86
e 63 134
e 63 149
e 63 153
e 63 175
e 63 182
e 63 206
e 63 216
e 63 217
e 63 249
e 64 72
e 64 76
e 64 104
e 64 109
e 64 110
e 64 121
e 64 139
e 64 146
e 64 168
e 64 169
e 64 173
e 64 184
e 64 186
e 64 207
e 64 213
e 64 216
e 64 221
e 64 222
e 64 225
e 64 248
e 65 72
e 65 94
e 65 97
e 65 124
e 65 138
e 65 145
e 65 152
e 65 175
e 65 177
e 65 197
e 65 217
e 65 230
e 65 231
e 65 232
e 65 242
e 65 250
e 66 72
e 66 102
e 66 106
e 66 145
e 66 148
e 66 149
e 66 152
e 66 159
e 66 197
e 66 199
e 66 227
e 66 230
e 66 233
e 66 239
e 67 77
e 67 85
e 67 88
e 67 89
e 67 92
e 67 101
e 67 114
e 67 146
e 67 151
e 67 184
e 67 201
e 67 206
e 67 219
e 67 227
e 67 236
e 67 238
e 67 239
e 67 241
e 67 243
e 67 248
e 68 87
e 68 99
e 68 101
e 68 113
e 68 123
e 68 134
e 68 140
e 68 147
e 68 155
e 68 180
e 68 185
e 68 198
e 68 201
e 68 223
e 68 236
e 69 80
e 69 85
e 69 99
e 69 106
e 69 114
e 69 119
e 69 125
e 69 129
e 69 130
e 69 147
e 69 155
e 69 171
e 69 174
e 69 176
e 69 198
e 69 201
e 69 202
e 69 214
e 69 222
e 69 225
e 69 239
e 70 74
e 70 96
e 70 108
e 70 131
e 70 166
e 70 182
e 70 187
e 70 193
e 70 195
e 70 201
e 70 204
e 70 217
e 70 220
e 70 221
e 70 224
e 71 72
e 71 84
e 71 93
e 71 115
e 71 126
e 71 140
e 71 144
e 71 153
e 71 186
e 71 194
e 71 196
e 71 199
e 71 229
e 71 241
e 71 250
e 72 82
e 72 91
e 72 92
e 72 94
e 72 119
e 72 120
e 72 122
e 72 127
e 72 130
e 72 132
e 72 133
e 72 136
e 72 153
e 72 154
e 72 163
e 72 167
e 72 181
e 72 186
e 72 187
e 72 190
e 72 191
e 72 196
e 72 197
e 72 207
e 72 209
e 72 212
e 72 215
e 72 219
e 72 220
e 72 225
e 72 233
e 72 241
e 73 78
e 73 80
e 73 92
e 73 98
e 73 108
e 73 109
e 73 113
e 73 114
e 73 122
e 73 124
e 73 126
e 73 127
e 73 145
e 73 188
e 73 210
e 73 219
e 73 229
e 73 248
e 74 77
e 74 78
e 74 89
e 74 103
e 74 108
e 74 119
e 74 139
e 74 141
e 74 145
e 74 242
e 74 244
e 75 76
e 75 78
e 75 98
e 75 99
e 75 109
e 75 136
e 75 150
e 75 153
e 75 158
e 75 160
e 75 165
e 75 167
e 75 186
e 75 210
e 75 219
e 75 223
e 75 245
e 76 78
e 76 79
e 76 104
e 76 127
e 76 134
e 76 137
e 76 157
e 76 166
e 76 168
e 76 177
e 76 178
e 76 207
e 76 214
e 76 234
e 76 246
e 77 80
e 77 84
e 77 85
e 77 92
e 77 95
e 77 100
e 77 127
e 77 136
e 77 143
e 77 152
e 77 157
e 77 168
e 77 170
e 77 174
e 77 175
e 77 177
e 77 218
e 77 229
e 78 79
e 78 105
e 78 118
e 78 144
e 78 153
e 78 155
e 78 166
e 78 172
e 78 181
e 78 188
e 78 192
e 78 196
e 78 198
e 78 199
e 78 205
e 78 209
e 78 213
e 78 224
e 78 229
e 78 247
e 78 249
e 79 103
e 79 109
e 79 110
e 79 116
e 79 135
e 79 139
e 79 145
e 79 146
e 79 148
e 79 167
e 79 170
e 79 176
e 79 182
e 79 188
e 79 189
e 79 199
e 79 220
e 79 222
e 79 247
e 80 96
e 80 103
e 80 110
e 80 117
e 80 125
e 80 126
e 80 136
e 80 150
e 80 167
e 80 211
e 80 219
e 80 230
e 80 234
e 80 250
e 81 88
e 81 124
e 81 126
e 81 144
e 81 145
e 81 150
e 81 177
e 81 179
e 81 185
e 81 188
e 81 242
e 81 245
e 82 87
e 82 96
e 82 104
e 82 115
e 82 116
e 82 118
e 82 130
e 82 149
e 82 153
e 82 155
e 82 159
e 82 172
e 82 176
e 82 181
e 82 198
e 82 206
e 82 217
e 82 232
e 82 233
e 82 239
e 82 250
e 83 96
e 83 106
e 83 108
e 83 112
e 83 141
e 83 152
e 83 153
e 83 155
e 83 175
e 83 180
e 83 222
e 83 224
e 83 229
e 83 232
e 83 246
e 84 85
e 84 100
e 84 101
e 84 109
e 84 129
e 84 130
e 84 134
e 84 136
e 84 138
e 84 157
e 84 189
e 84 191
e 84 193
e 84 202
e 84 215
e 84 223
e 84 226
e 84 229
e 84 231
e 84 241
e 85 87
e 85 91
e 85 102
e 85 126
e 85 136
e 85 145
e 85 156
e 85 159
e 85 169
e 85 180
e 85 196
e 85 199
e 85 242
e 85 247
e 86 93
e 86 95
e 86 98
e 86 102
e 86 103
e 86 115
e 86 125
e 86 129
e 86 138
e 86 142
e 86 165
e 86 171
e 86 178
e 86 209
e 86 213
e 86 243
e 87 99
e 87 103
e 87 108
e 87 109
e 87 112
e 87 129
e 87 132
e 87 139
e 87 156
e 87 181
e 87 201
e 87 211
e 88 108
e 88 116
e 88 119
e 88 145
e 88 150
e 88 151
e 88 182
e 88 202
e 88 235
e 89 94
e 89 103
e 89 108
e 89 114
e 89 123
e 89 151
e 89 157
e 89 159
e 89 178
e 89 196
e 89 209
e 89 212
e 89 243
e 89 248
e 90 104
e 90 106
e 90 118
e 90 137
e 90 138
e 90 144
e 90 157
e 90 159
e 90 170
e 90 183
e 90 185
e 90 187
e 90 188
e 90 192
e 90 198
e 90 204
e 90 208
e 90 225
e 90 227
e 90 231
e 90 234
e 91 95
e 91 106
e 91 110
e 91 111
e 91 113
e 91 117
e 91 126
e 91 129
e 91 136
e 91 144
e 91 146
e 91 154
e 91 164
e 91 169
e 91 187
e 91 202
e 91 207
e 91 225
e 91 226
e 91 233
e 91 248
e 92 110
e 92 131
e 92 144
e 92 162
e 92 195
e 92 209
e 92 217
e 92 225
e 92 235
e 93 97
e 93 106
e 93 132
e 93 146
e 93 160
e 93 177
e 93 184
e 93 185
e 93 203
e 93 221
e 94 96
e 94 114
e 94 119
e 94 128
e 94 131
e 94 143
e 94 150
e 94 159
e 94 161
e 94 179
e 94 181
e 94 189
e 94 198
e 94 199
e 94 236
e 94 244
e 95 100
e 95 114
e 95 118
e 95 119
e 95 124
e 95 130
e 95 145
e 95 155
e 95 160
e 95 179
e 95 184
e 95 189
e 95 219
e 95 233
e 95 237
e 96 103
e 96 105
e 96 107
e 96 115
e 96 122
e 96 124
e 96 126
e 96 143
e 96 148
e 96 151
e 96 166
e 96 170
e 96 171
e 96 194
e 96 198
e 96 202
e 96 206
e 96 213
e 96 216
e 96 227
e 96 238
e 96 246
e 97 100
e 97 104
e 97 106
e 97 107
e 97 113
e 97 119
e 97 124
e 97 133
e 97 137
e 97 142
e 97 157
e 97 163
e 97 183
e 97 198
e 97 211
e 97 242
e 98 99
e 98 110
e 98 112
e 98 118
e 98 121
e 98 138
e 98 139
e 98 154
e 98 164
e 98 166
e 98 176
e 98 180
e 98 185
e 98 202
e 98 203
e 98 205
e 98 211
e 98 217
e 98 224
e 98 235
e 98 236
e 98 250
e 99 115
e 99 119
e 99 126
e 99 138
e 99 170
e 99 208
e 99 211
e 99 212
e 99 229
e 99 245
e 100 104
e 100 107
e 100 147
e 100 158
e 100 159
e 100 164
e 100 168
e 100 178
e 100 190
e 100 202
e 100 211
e 100 214
e 100 242
e 100 244
e 100 248
e 100 250
e 101 127
e 101 133
e 101 138
e 101 151
e 101 160
e 101 170
e 101 216
e 101 223
e 101 225
e 101 230
e 101 235
e 101 246
e 102 107
e 102 125
e 102 150
e 102 155
e 102 159
e 102 161
e 102 162
e 102 164
e 102 166
e 102 171
e 102 179
e 102 184
e 102 188
e 102 197
e 102 225
e 102 232
e 102 237
e 102 244
e 103 126
e 103 130
e 103 142
e 103 151
e 103 166
e 103 178
e 103 179
e 103 197
e 103 205
e 103 229
e 103 232
e 103 235
e 103 237
e 104 118
e 104 135
e 104 136
e 104 146
e 104 168
e 104 196
e 104 216
e 104 227
e 105 111
e 105 120
e 105 136
e 105 140
e 105 144
e 105 153
e 105 159
e 105 167
e 105 169
e 105 170
e 105 181
e 105 186
e 105 190
e 105 195
e 105 201
e 105 207
e 105 245
e 106 119
e 106 122
e 106 124
e 106 133
e 106 136
e 106 138
e 106 139
e 106 151
e 106 155
e 106 157
e 106 161
e 106 163
e 106 172
e 106 173
e 106 184
e 106 185
e 106 186
e 106 189
e 106 195
e 106 201
e 106 208
e 106 218
e 107 125
e 107 128
e 107 132
e 107 159
e 107 174
e 107 181
e 107 187
e 107 206
e 107 214
e 107 216
e 107 220
e 107 221
e 107 222
e 107 234
e 107 242
e 107 243
e 107 244
e 107 245
e 108 118
e 108 120
e 108 144
e 108 147
e 108 151
e 108 171
e 108 183
e 108 186
e 108 188
e 108 193
e 108 205
e 108 213
e 108 222
e 109 114
e 109 120
e 109 125
e 109 129
e 109 130
e 109 155
e 109 162
e 109 168
e 109 170
e 109 185
e 109 186
e 109 192
e 109 198
e 109 211
e 109 212
e 109 225
e 109 228
e 109 231
e 109 248
e 110 115
e 110 138
e 110 151
e 110 153
e 110 162
e 110 164
e 110 172
e 110 174
e 110 189
e 110 199
e 110 214
e 110 219
e 110 224
e 110 232
e 110 233
e 110 241
e 110 247
e 111 117
e 111 123
e 111 132
e 111 135
e 111 177
e 111 183
e 111 187
e 111 195
e 111 216
e 111 233
e 112 115
e 112 121
e 112 123
e 112 130
e 112 148
e 112 155
e 112 181
e 112 184
e 112 190
e 112 203
e 112 208
e 112 217
e 112 223
e 112 225
e 112 242
e 112 248
e 113 115
e 113 121
e 113 134
e 113 172
e 113 177
e 113 187
e 113 189
e 113 201
e 113 206
e 113 229
e 114 132
e 114 133
e 114 143
e 114 149
e 114 156
e 114 160
e 114 171
e 114 173
e 114 205
e 114 208
e 114 215
e 114 228
e 114 243
e 114 246
e 114 247
e 114 250
e 115 125
e 115 132
e 115 138
e 115 151
e 115 166
e 115 167
e 115 168
e 115 171
e 115 189
e 115 200
e 115 206
e 115 212
e 115 221
e 115 230
e 116 118
e 116 144
e 116 151
e 116 152
e 116 161
e 116 164
e 116 184
e 116 185
e 116 201
e 116 204
e 116 223
e 116 227
e 116 233
e 116 234
e 116 238
e 116 242
e 116 248
e 117 125
e 117 132
e 117 141
e 117 148
e 117 172
e 117 173
e 117 189
e 117 198
e 117 216
e 117 240
e 118 132
e 118 138
e 118 174
e 118 179
e 118 182
e 118 196
e 118 202
e 118 218
e 118 221
e 118 224
e 118 233
e 118 250
e 119 123
e 119 126
e 119 166
e 119 171
e 119 179
e 119 183
e 119 212
e 119 225
e 119 230
e 119 233
e 119 249
e 119 250
e 120 124
e 120 155
e 120 167
e 120 171
e 120 184
e 120 187
e 120 193
e 120 203
e 120 216
e 121 123
e 121 134
e 121 138
e 121 166
e 121 175
e 121 183
e 121 205
e 121 207
e 121 211
e 121 230
e 121 233
e 121 240
e 121 242
e 121 243
e 122 144
e 122 154
e 122 169
e 122 173
e 122 178
e 122 180
e 122 193
e 122 196
e 122 206
e 122 207
e 122 214
e 122 217
e 122 220
e 122 221
e 122 238
e 123 173
e 123 177
e 123 180
e 123 196
e 123 199
e 123 210
e 123 211
e 123 221
e 123 222
e 124 133
e 124 136
e 124 144
e 124 167
e 124 181
e 124 203
e 124 219
e 124 224
e 124 231
e 125 140
e 125 149
e 125 156
e 125 171
e 125 173
e 125 180
e 125 190
e 125 194
e 125 235
e 125 249
e 126 144
e 126 156
e 126 158
e 126 171
e 126 174
e 126 183
e 126 188
e 126 206
e 126 224
e 126 244
e 127 147
e 127 151
e 127 154
e 127 196
e 127 207
e 127 217
e 127 218
e 127 224
e 127 235
e 127 243
e 128 130
e 128 151
e 128 155
e 128 169
e 128 181
e 128 199
e 128 205
e 128 220
e 128 221
e 128 224
e 128 226
e 128 229
e 128 232
e 128 234
e 129 130
e 129 152
e 129 164
e 129 182
e 129 208
e 129 234
e 129 239
e 129 244
e 130 135
e 130 147
e 130 154
e 130 181
e 130 184
e 130 191
e 130 194
e 130 195
e 130 203
e 130 210
e 130 217
e 130 220
e 130 223
e 130 234
e 130 239
e 130 240
e 130 242
e 131 148
e 131 161
e 131 165
e 131 182
e 131 198
e 131 215
e 131 222
e 131 223
e 132 138
e 132 150
e 132 156
e 132 167
e 132 172
e 132 174
e 132 189
e 132 213
e 132 220
e 132 227
e 132 228
e 132 231
e 133 136
e 133 143
e 133 155
e 133 170
e 133 189
e 133 194
e 133 204
e 133 212
e 133 217
e 133 218
e 134 159
e 134 163
e 134 167
e 134 191
e 134 221
e 134 232
e 134 233
e 134 241
e 134 248
e 135 142
e 135 151
e 135 167
e 135 176
e 135 183
e 135 196
e 135 198
e 135 199
e 135 209
e 135 211
e 135 216
e 135 220
e 135 222
e 135 225
e 135 239
e 135 244
e 136 148
e 136 151
e 136 153
e 136 172
e 136 186
e 136 189
e 136 199
e 136 221
e 136 231
e 136 236
e 136 245
e 136 247
e 137 144
e 137 151
e 137 154
e 137 158
e 137 178
e 137 183
e 137 192
e 137 198
e 137 206
e 137 214
e 137 224
e 137 226
e 137 233
e 137 235
e 137 243
e 137 244
e 137 245
e 138 148
e 138 149
e 138 150
e 138 157
e 138 171
e 138 183
e 138 191
e 138 208
e 138 216
e 138 217
e 138 220
e 138 222
e 138 236
e 139 143
e 139 159
e 139 163
e 139 165
e 139 193
e 139 195
e 139 197
e 140 146
e 140 147
e 140 154
e 140 170
e 140 186
e 140 187
e 140 203
e 140 204
e 140 205
e 140 208
e 140 211
e 140 212
e 140 222
e 140 246
e 140 249
e 141 148
e 141 170
e 141 173
e 141 176
e 141 193
e 141 196
e 141 204
e 141 217
e 141 219
e 141 220
e 142 147
e 142 148
e 142 154
e 142 162
e 142 170
e 142 179
e 142 187
e 142 211
e 142 219
e 142 244
e 143 156
e 143 179
e 143 186
e 143 188
e 143 196
e 143 197
e 143 205
e 143 211
e 143 212
e 143 221
e 143 230
e 143 239
e 144 153
e 144 164
e 144 178
e 144 179
e 144 184
e 144 185
e 144 200
e 144 209
e 144 218
e 144 222
e 145 159
e 145 160
e 145 171
e 145 199
e 145 206
e 145 214
e 145 220
e 145 224
e 145 226
e 145 235
e 145 237
e 146 147
e 146 150
e 146 152
e 146 156
e 146 187
e 146 194
e 146 204
e 146 222
e 146 226
e 146 238
e 146 245
e 146 246
e 147 149
e 147 159
e 147 166
e 147 216
e 147 234
e 147 244
e 147 248
e 148 150
e 148 155
e 148 165
e 148 166
e 148 179
e 148 181
e 148 189
e 148 195
e 148 206
e 148 211
e 148 224
e 148 237
e 148 243
e 148 249
e 149 151
e 149 157
e 149 162
e 149 173
e 149 175
e 149 178
e 149 179
e 149 190
e 149 191
e 149 196
e 149 208
e 149 224
e 149 229
e 149 249
e 150 163
e 150 170
e 150 176
e 150 179
e 150 191
e 150 198
e 150 204
e 150 220
e 150 239
e 150 242
e 151 168
e 151 178
e 151 190
e 151 206
e 151 214
e 151 217
e 151 228
e 151 230
e 151 236
e 152 155
e 152 170
e 152 199
e 152 204
e 152 205
e 152 216
e 152 218
e 152 223
e 152 227
e 152 234
e 152 235
e 152 250
e 153 163
e 153 177
e 153 178
e 153 182
e 153 189
e 153 205
e 153 210
e 153 242
e 154 161
e 154 178
e 154 183
e 154 188
e 154 201
e 154 208
e 154 213
e 154 219
e 154 220
e 154 231
e 154 234
e 154 245
e 155 191
e 155 219
e 155 220
e 155 226
e 155 228
e 155 230
e 155 231
e 155 250
e 156 170
e 156 186
e 156 193
e 156 201
e 156 226
e 156 230
e 156 241
e 157 162
e 157 172
e 157 185
e 157 190
e 157 205
e 157 213
e 157 214
e 157 244
e 158 159
e 158 162
e 158 172
e 158 173
e 158 175
e 158 193
e 158 198
e 158 203
e 158 215
e 158 217
e 158 241
e 159 171
e 159 184
e 159 200
e 159 228
e 159 235
e 159 243
e 159 248
e 160 162
e 160 166
e 160 181
e 160 217
e 160 218
e 160 223
e 161 162
e 161 190
e 161 192
e 161 217
e 161 218
e 161 233
e 161 247
e 162 196
e 162 199
e 162 220
e 162 221
e 162 222
e 162 227
e 162 229
e 162 246
e 163 165
e 163 177
e 163 180
e 163 183
e 163 190
e 163 195
e 163 207
e 163 212
e 163 220
e 163 226
e 163 227
e 163 237
e 163 238
e 164 181
e 164 194
e 164 199
e 164 200
e 164 223
e 164 244
e 165 166
e 165 185
e 165 190
e 165 197
e 165 199
e 165 205
e 165 219
e 166 175
e 166 178
e 166 190
e 166 210
e 166 220
e 166 221
e 166 223
e 166 246
e 167 199
e 167 211
e 167 217
e 167 228
e 167 241
e 167 243
e 168 170
e 168 179
e 168 199
e 168 233
e 168 241
e 169 172
e 169 188
e 169 212
e 169 221
e 169 225
e 169 226
e 169 228
e 169 236
e 169 240
e 170 188
e 170 190
e 170 200
e 170 201
e 170 203
e 170 209
e 170 211
e 170 226
e 170 245
e 171 190
e 171 194
e 172 213
e 172 232
e 173 185
e 173 193
e 173 209
e 173 215
e 173 218
e 173 225
e 173 242
e 174 175
e 174 181
e 174 210
e 174 211
e 174 224
e 174 227
e 174 244
e 174 247
e 174 248
e 175 208
e 175 234
e 176 177
e 176 185
e 176 200
e 176 212
e 176 222
e 176 229
e 177 188
e 177 189
e 177 197
e 177 206
e 177 238
e 177 244
e 178 204
e 178 206
e 178 217
e 178 223
e 178 226
e 178 230
e 178 231
e 178 235
e 178 239
e 178 243
e 179 181
e 179 183
e 179 203
e 179 220
e 179 224
e 179 250
e 180 181
e 180 186
e 180 198
e 180 207
e 180 208
e 180 210
e 180 218
e 180 244
e 180 247
e 181 183
e 181 193
e 181 194
e 181 209
e 181 215
e 181 225
e 181 237
e 182 183
e 182 189
e 182 202
e 182 209
e 182 219
e 182 224
e 182 230
e 182 237
e 183 198
e 183 205
e 183 214
e 183 222
e 183 245
e 184 202
e 184 207
e 184 217
e 184 226
e 184 230
e 184 241
e 185 186
e 185 187
e 185 212
e 185 217
e 185 240
e 185 242
e 185 243
e 186 191
e 186 192
e 186 193
e 186 202
e 186 210
e 186 223
e 186 230
e 186 249
e 187 192
e 187 197
e 187 200
e 187 208
e 187 210
e 187 221
e 187 224
e 187 227
e 188 204
e 188 211
e 188 221
e 188 247
e 189 202
e 189 211
e 189 219
e 189 222
e 189 228
e 189 244
e 190 199
e 190 200
e 190 218
e 191 219
e 191 224
e 191 227
e 191 233
e 191 239
e 191 241
e 191 243
e 191 245
e 192 210
e 192 220
e 192 222
e 192 234
e 192 235
e 192 237
e 192 249
e 193 199
e 193 219
e 193 226
e 193 234
e 193 236
e 194 225
e 195 200
e 195 205
e 195 215
e 195 217
e 195 223
e 195 240
e 195 244
e 195 249
e 196 198
e 196 228
e 197 210
e 197 211
e 197 213
e 197 223
e 197 240
e 197 244
e 197 248
e 197 250
e 198 199
e 198 205
e 198 221
e 198 237
e 198 244
e 199 201
e 199 212
e 199 233
e 199 243
e 200 215
e 200 218
e 200 220
e 200 223
e 200 226
e 200 227
e 200 238
e 200 243
e 201 202
e 201 207
e 201 215
e 201 220
e 201 224
e 201 233
e 201 248
e 202 222
e 202 225
e 202 231
e 202 249
e 203 213
e 203 218
e 203 221
e 203 222
e 203 235
e 204 208
e 204 212
e 204 219
e 204 231
e 205 227
e 205 228
e 205 238
e 205 239
e 205 240
e 206 212
e 206 217
e 206 221
e 206 225
e 207 210
e 207 219
e 207 223
e 207 229
e 207 237
e 208 221
e 209 210
e 209 233
e 209 239
e 209 241
e 209 243
e 209 245
e 210 217
e 210 223
e 210 233
e 210 244
e 210 245
e 211 231
e 211 232
e 211 247
e 211 250
e 212 216
e 212 237
e 212 242
e 212 246
e 212 247
e 213 225
e 213 227
e 213 233
e 213 234
e 213 242
e 213 246
e 214 218
e 214 220
e 214 231
e 214 241
e 214 245
e 215 218
e 215 224
e 216 218
e 216 238
e 217 219
e 217 220
e 217 226
e 217 227
e 217 233
e 217 236
e 217 237
e 217 238
e 217 242
e 217 249
e 218 220
e 218 223
e 218 246
e 218 250
e 219 236
e 219 239
e 219 240
e 219 243
e 220 222
e 220 237
e 220 241
e 220 248
e 221 222
e 221 235
e 221 240
e 221 243
e 221 250
e 222 223
e 222 233
e 222 241
e 222 243
e 222 250
e 223 225
e 223 244
e 224 231
e 224 234
e 224 242
e 225 227
e 225 238
e 225 242
e 225 248
e 225 249
e 226 232
e 226 239
e 226 242
e 226 243
e 226 245
e 226 249
e 227 247
e 227 250
e 228 229
e 228 232
e 229 236
e 230 234
e 230 236
e 231 235
e 231 248
e 232 234
e 232 237
e 232 240
e 232 247
e 233 245
e 234 237
e 234 250
e 235 240
e 236 237
e 236 241
e 237 247
e 238 248
e 238 249
e 239 247
e 239 249
e 240 245
e 242 244
e 244 249
e 246 249
e 248 249
